c colouring generated by benchmark framework
p edge 958 957
v 1 1
v 2 1
v 3 1
v 4 1
v 5 1
v 6 2
v 7 2
v 8 2
v 9 2
v 10 0
v 11 1
v 12 0
v 13 2
v 14 2
v 15 2
v 16 2
v 17 0
v 18 0
v 19 0
v 20 2
v 21 0
v 22 2
v 23 0
v 24 2
v 25 1
v 26 0
v 27 1
v 28 1
v 29 1
v 30 0
v 31 1
v 32 0
v 33 1
v 34 2
v 35 2
v 36 2
v 37 2
v 38 1
v 39 0
v 40 0
v 41 2
v 42 2
v 43 2
v 44 1
v 45 1
v 46 2
v 47 2
v 48 1
v 49 1
v 50 0
v 51 2
v 52 0
v 53 2
v 54 0
v 55 1
v 56 0
v 57 1
v 58 2
v 59 2
v 60 2
v 61 0
v 62 0
v 63 1
v 64 0
v 65 1
v 66 2
v 67 1
v 68 1
v 69 2
v 70 0
v 71 0
v 72 2
v 73 2
v 74 0
v 75 1
v 76 1
v 77 0
v 78 0
v 79 1
v 80 0
v 81 0
v 82 2
v 83 1
v 84 1
v 85 2
v 86 0
v 87 2
v 88 2
v 89 2
v 90 2
v 91 0
v 92 2
v 93 0
v 94 2
v 95 1
v 96 0
v 97 2
v 98 1
v 99 2
v 100 2
v 101 1
v 102 1
v 103 0
v 104 0
v 105 1
v 106 2
v 107 2
v 108 1
v 109 0
v 110 0
v 111 0
v 112 1
v 113 0
v 114 2
v 115 0
v 116 0
v 117 2
v 118 0
v 119 1
v 120 0
v 121 0
v 122 2
v 123 1
v 124 1
v 125 0
v 126 0
v 127 1
v 128 0
v 129 1
v 130 1
v 131 1
v 132 0
v 133 0
v 134 1
v 135 1
v 136 0
v 137 1
v 138 0
v 139 2
v 140 1
v 141 0
v 142 2
v 143 1
v 144 0
v 145 1
v 146 1
v 147 1
v 148 0
v 149 1
v 150 2
v 151 1
v 152 2
v 153 1
v 154 0
v 155 1
v 156 1
v 157 2
v 158 2
v 159 0
v 160 1
v 161 2
v 162 1
v 163 0
v 164 1
v 165 1
v 166 2
v 167 1
v 168 1
v 169 0
v 170 1
v 171 1
v 172 0
v 173 2
v 174 1
v 175 0
v 176 2
v 177 0
v 178 0
v 179 0
v 180 0
v 181 0
v 182 2
v 183 2
v 184 2
v 185 0
v 186 1
v 187 1
v 188 2
v 189 2
v 190 1
v 191 0
v 192 2
v 193 2
v 194 1
v 195 0
v 196 2
v 197 2
v 198 0
v 199 0
v 200 1
v 201 1
v 202 2
v 203 0
v 204 0
v 205 1
v 206 1
v 207 0
v 208 2
v 209 0
v 210 1
v 211 0
v 212 2
v 213 2
v 214 0
v 215 1
v 216 2
v 217 1
v 218 0
v 219 2
v 220 2
v 221 0
v 222 0
v 223 1
v 224 0
v 225 0
v 226 1
v 227 1
v 228 0
v 229 0
v 230 1
v 231 1
v 232 1
v 233 2
v 234 1
v 235 0
v 236 0
v 237 0
v 238 2
v 239 0
v 240 2
v 241 1
v 242 1
v 243 0
v 244 0
v 245 2
v 246 1
v 247 1
v 248 0
v 249 2
v 250 2
v 251 2
v 252 2
v 253 1
v 254 0
v 255 1
v 256 1
v 257 1
v 258 1
v 259 0
v 260 2
v 261 0
v 262 2
v 263 2
v 264 1
v 265 2
v 266 1
v 267 1
v 268 0
v 269 1
v 270 0
v 271 0
v 272 1
v 273 2
v 274 2
v 275 2
v 276 2
v 277 2
v 278 0
v 279 0
v 280 2
v 281 0
v 282 1
v 283 0
v 284 0
v 285 2
v 286 0
v 287 2
v 288 1
v 289 0
v 290 2
v 291 2
v 292 0
v 293 1
v 294 1
v 295 0
v 296 1
v 297 1
v 298 2
v 299 2
v 300 2
v 301 0
v 302 0
v 303 0
v 304 0
v 305 1
v 306 1
v 307 1
v 308 1
v 309 2
v 310 0
v 311 0
v 312 2
v 313 0
v 314 2
v 315 1
v 316 0
v 317 0
v 318 2
v 319 2
v 320 2
v 321 0
v 322 1
v 323 0
v 324 1
v 325 2
v 326 2
v 327 0
v 328 0
v 329 1
v 330 0
v 331 2
v 332 2
v 333 2
v 334 1
v 335 0
v 336 2
v 337 1
v 338 2
v 339 2
v 340 0
v 341 0
v 342 2
v 343 1
v 344 2
v 345 2
v 346 2
v 347 2
v 348 1
v 349 0
v 350 0
v 351 2
v 352 2
v 353 1
v 354 2
v 355 0
v 356 1
v 357 1
v 358 2
v 359 2
v 360 0
v 361 0
v 362 2
v 363 2
v 364 1
v 365 0
v 366 0
v 367 2
v 368 0
v 369 0
v 370 1
v 371 0
v 372 0
v 373 2
v 374 2
v 375 0
v 376 0
v 377 0
v 378 1
v 379 2
v 380 0
v 381 0
v 382 1
v 383 2
v 384 1
v 385 1
v 386 2
v 387 0
v 388 1
v 389 0
v 390 1
v 391 2
v 392 0
v 393 2
v 394 2
v 395 2
v 396 0
v 397 0
v 398 1
v 399 2
v 400 2
v 401 2
v 402 1
v 403 0
v 404 2
v 405 2
v 406 0
v 407 2
v 408 2
v 409 0
v 410 2
v 411 0
v 412 1
v 413 2
v 414 0
v 415 2
v 416 2
v 417 0
v 418 1
v 419 0
v 420 2
v 421 0
v 422 2
v 423 1
v 424 0
v 425 2
v 426 0
v 427 2
v 428 2
v 429 0
v 430 0
v 431 2
v 432 0
v 433 0
v 434 0
v 435 1
v 436 0
v 437 2
v 438 1
v 439 2
v 440 1
v 441 0
v 442 0
v 443 2
v 444 0
v 445 1
v 446 0
v 447 0
v 448 2
v 449 1
v 450 2
v 451 2
v 452 0
v 453 0
v 454 2
v 455 2
v 456 1
v 457 0
v 458 0
v 459 2
v 460 1
v 461 1
v 462 1
v 463 0
v 464 1
v 465 2
v 466 2
v 467 1
v 468 0
v 469 1
v 470 0
v 471 1
v 472 1
v 473 2
v 474 1
v 475 1
v 476 0
v 477 1
v 478 1
v 479 2
v 480 0
v 481 1
v 482 2
v 483 0
v 484 1
v 485 2
v 486 1
v 487 2
v 488 2
v 489 2
v 490 2
v 491 2
v 492 2
v 493 1
v 494 0
v 495 2
v 496 2
v 497 0
v 498 1
v 499 2
v 500 1
v 501 1
v 502 2
v 503 1
v 504 0
v 505 0
v 506 0
v 507 1
v 508 0
v 509 2
v 510 1
v 511 1
v 512 1
v 513 1
v 514 1
v 515 0
v 516 1
v 517 2
v 518 2
v 519 0
v 520 2
v 521 2
v 522 1
v 523 2
v 524 2
v 525 0
v 526 2
v 527 1
v 528 2
v 529 1
v 530 0
v 531 1
v 532 0
v 533 1
v 534 0
v 535 2
v 536 1
v 537 0
v 538 0
v 539 2
v 540 2
v 541 2
v 542 2
v 543 0
v 544 0
v 545 2
v 546 1
v 547 2
v 548 2
v 549 2
v 550 1
v 551 1
v 552 0
v 553 1
v 554 0
v 555 0
v 556 0
v 557 0
v 558 0
v 559 1
v 560 2
v 561 1
v 562 0
v 563 1
v 564 1
v 565 2
v 566 0
v 567 2
v 568 1
v 569 0
v 570 1
v 571 0
v 572 1
v 573 2
v 574 2
v 575 1
v 576 1
v 577 2
v 578 2
v 579 2
v 580 2
v 581 0
v 582 2
v 583 0
v 584 2
v 585 0
v 586 2
v 587 2
v 588 0
v 589 2
v 590 1
v 591 2
v 592 0
v 593 1
v 594 1
v 595 1
v 596 2
v 597 0
v 598 2
v 599 1
v 600 1
v 601 2
v 602 2
v 603 0
v 604 1
v 605 0
v 606 0
v 607 1
v 608 0
v 609 2
v 610 1
v 611 0
v 612 0
v 613 2
v 614 2
v 615 1
v 616 0
v 617 0
v 618 2
v 619 0
v 620 1
v 621 0
v 622 0
v 623 1
v 624 1
v 625 2
v 626 1
v 627 1
v 628 2
v 629 1
v 630 2
v 631 0
v 632 2
v 633 1
v 634 2
v 635 1
v 636 1
v 637 2
v 638 1
v 639 1
v 640 2
v 641 2
v 642 2
v 643 1
v 644 2
v 645 1
v 646 0
v 647 2
v 648 0
v 649 0
v 650 2
v 651 1
v 652 0
v 653 2
v 654 1
v 655 2
v 656 2
v 657 1
v 658 0
v 659 1
v 660 1
v 661 1
v 662 0
v 663 1
v 664 1
v 665 2
v 666 2
v 667 2
v 668 2
v 669 1
v 670 0
v 671 0
v 672 1
v 673 2
v 674 1
v 675 2
v 676 1
v 677 0
v 678 0
v 679 0
v 680 0
v 681 0
v 682 0
v 683 2
v 684 2
v 685 1
v 686 0
v 687 2
v 688 2
v 689 2
v 690 2
v 691 2
v 692 2
v 693 0
v 694 1
v 695 0
v 696 0
v 697 2
v 698 1
v 699 2
v 700 0
v 701 0
v 702 2
v 703 1
v 704 2
v 705 0
v 706 1
v 707 1
v 708 1
v 709 0
v 710 0
v 711 1
v 712 2
v 713 2
v 714 0
v 715 2
v 716 2
v 717 1
v 718 1
v 719 0
v 720 2
v 721 0
v 722 0
v 723 2
v 724 0
v 725 0
v 726 2
v 727 1
v 728 1
v 729 1
v 730 2
v 731 2
v 732 1
v 733 1
v 734 2
v 735 1
v 736 1
v 737 0
v 738 2
v 739 0
v 740 2
v 741 2
v 742 1
v 743 0
v 744 0
v 745 0
v 746 0
v 747 0
v 748 1
v 749 1
v 750 1
v 751 0
v 752 2
v 753 2
v 754 2
v 755 1
v 756 0
v 757 1
v 758 2
v 759 2
v 760 2
v 761 2
v 762 0
v 763 1
v 764 2
v 765 2
v 766 1
v 767 1
v 768 2
v 769 2
v 770 0
v 771 1
v 772 1
v 773 2
v 774 2
v 775 2
v 776 0
v 777 0
v 778 2
v 779 1
v 780 2
v 781 0
v 782 1
v 783 2
v 784 2
v 785 2
v 786 2
v 787 2
v 788 2
v 789 1
v 790 0
v 791 0
v 792 2
v 793 0
v 794 2
v 795 1
v 796 1
v 797 0
v 798 0
v 799 1
v 800 1
v 801 1
v 802 1
v 803 1
v 804 0
v 805 0
v 806 0
v 807 2
v 808 1
v 809 2
v 810 0
v 811 2
v 812 0
v 813 0
v 814 2
v 815 1
v 816 1
v 817 0
v 818 0
v 819 2
v 820 2
v 821 1
v 822 0
v 823 2
v 824 0
v 825 1
v 826 1
v 827 0
v 828 0
v 829 0
v 830 0
v 831 1
v 832 2
v 833 1
v 834 1
v 835 2
v 836 0
v 837 1
v 838 1
v 839 1
v 840 0
v 841 0
v 842 0
v 843 2
v 844 2
v 845 0
v 846 2
v 847 2
v 848 1
v 849 2
v 850 1
v 851 0
v 852 2
v 853 2
v 854 0
v 855 2
v 856 0
v 857 0
v 858 1
v 859 0
v 860 0
v 861 1
v 862 1
v 863 0
v 864 0
v 865 2
v 866 2
v 867 2
v 868 2
v 869 2
v 870 0
v 871 1
v 872 0
v 873 0
v 874 1
v 875 0
v 876 0
v 877 2
v 878 0
v 879 2
v 880 0
v 881 1
v 882 0
v 883 0
v 884 2
v 885 0
v 886 1
v 887 0
v 888 1
v 889 1
v 890 2
v 891 2
v 892 1
v 893 2
v 894 0
v 895 1
v 896 1
v 897 0
v 898 1
v 899 2
v 900 2
v 901 1
v 902 0
v 903 2
v 904 1
v 905 1
v 906 1
v 907 1
v 908 1
v 909 1
v 910 2
v 911 1
v 912 2
v 913 0
v 914 0
v 915 2
v 916 2
v 917 0
v 918 0
v 919 1
v 920 0
v 921 1
v 922 1
v 923 1
v 924 2
v 925 0
v 926 2
v 927 2
v 928 2
v 929 1
v 930 2
v 931 1
v 932 1
v 933 0
v 934 2
v 935 0
v 936 1
v 937 2
v 938 2
v 939 0
v 940 0
v 941 1
v 942 1
v 943 1
v 944 2
v 945 2
v 946 1
v 947 0
v 948 1
v 949 0
v 950 1
v 951 2
v 952 2
v 953 2
v 954 2
v 955 1
v 956 1
v 957 0
v 958 0
